300
[60,61,64,68,69,70,71,74,77,78,79,81,82,83,84,86,92,93,94,95,97,98,99,105,106,107,108,111,112,115,117,118,121,123,125,127,132,133,134,135,136,137,138,139,140,141,142,143,144,145,149,150,151,153,158,159,160,165,170,172,175,176,177,179,181,183,185,188,192,193,195,196,198,200,201,202,208]
[1,1,1,1,1,1,1,1,3,2,1,1,1,1,2,1,1,1,3,2,1,1,1,1,2,2,1,2,1,2,1,1,1,1,1,1,1,1,1,1,1,2,3,1,2,1,1,1,1,2,1,1,1,1,3,1,1,1,1,1,2,2,1,1,1,2,1,2,1,1,1,1,1,1,2,1,1]
